Route #1: 1 2 24 19 55 54 21 42 1
Route #2: 1 53 18 56 35 52 44 1
Route #3: 1 46 32 12 58 39 20 36 23 57 1
Route #4: 1 34 66 9 16 61 5 40 15 4 30 22 37 1
Route #5: 1 8 17 63 49 26 38 60 65 31 1
Route #6: 1 59 33 41 6 28 43 1
Route #7: 1 14 51 29 48 62 7 1
Route #8: 1 11 27 47 64 45 3 1
Route #9: 1 25 13 50 10 1
cost: 1389
